c 1 CONFIG_TOYSH_ARRAYS
c 2 CONFIG_TOYSH_PROFILE
c 3 CONFIG_DF_PEDANTIC
c 4 CONFIG_TOYSH_PROCARGS
c 5 CONFIG_TOYSH_ENVVARS
c 6 CONFIG_TOYSH_LOCALS
c 7 CONFIG_MKE2FS_LABEL
c 8 CONFIG_TOYSH_FLOWCTL
c 9 CONFIG_READLINK_F
c 10 CONFIG_TOYSH_JOBCTL
c 11 CONFIG_MKE2FS_EXTENDED
c 12 CONFIG_TOYSH
c 13 CONFIG_TOYSH_PIPES
c 14 CONFIG_MKE2FS_JOURNAL
c 15 CONFIG_TOYSH_TTY
c 16 CONFIG_MKE2FS_GEN
c 17 CONFIG_TOYSH_WILDCARDS
c 18 CONFIG_TOYSH_BUILTINS
c 19 CONFIG_MKE2FS
c 20 CONFIG_DF
c 21 CONFIG_TOYSH_QUOTES
c 22 CONFIG_READLINK
c 23 __Root__
p cnf 23 41
23 0
23 -20 0
23 -3 0
23 -19 0
23 -16 0
23 -22 0
23 -9 0
23 -7 0
23 -17 0
23 -21 0
23 -11 0
23 -5 0
23 -12 0
23 -15 0
23 -1 0
23 -6 0
23 -10 0
23 -2 0
23 -8 0
23 -18 0
23 -4 0
23 -13 0
23 -14 0
20 -3 0
19 -16 0
22 -9 0
19 -7 0
-17 21 0
-11 19 0
21 -5 0
12 -15 0
-1 6 0
-6 5 0
-21 12 0
-10 15 0
-2 15 0
12 -8 0
-18 12 0
21 -4 0
-13 12 0
19 -14 0
